NAME: tsp30_1
COMMENT: 30-tsp problem (Padberg/Rinaldi)
TYPE: TSP
DIMENSION: 30
EDGE_WEIGHT_TYPE : EUC_2D
NODE_COORD_SECTION
1.00 3.32 22.98
2.00 22.16 18.96
3.00 6.50 35.32
4.00 18.12 19.13
5.00 20.04 8.19
6.00 5.31 24.12
7.00 26.55 38.74
8.00 14.40 24.97
9.00 29.16 9.71
10.00 35.19 39.92
11.00 2.60 26.59
12.00 4.51 26.13
13.00 16.89 12.14
14.00 14.34 3.13
15.00 25.31 13.43
16.00 13.69 15.36
17.00 9.65 29.39
18.00 21.30 38.27
19.00 3.47 37.42
20.00 6.65 8.41
21.00 0.76 11.27
22.00 17.28 11.90
23.00 30.76 33.06
24.00 34.44 18.94
25.00 37.98 0.64
26.00 31.05 30.19
27.00 12.05 36.34
28.00 9.74 28.70
29.00 18.86 26.05
30.00 17.77 34.53
